3 
4  38 53 
5  08 23 38 50 56 
6  02 07 11 17 22 27 32 37 42 47 52 57 
7  02 07 12 17 22 27 32 37 42 47 52 57 
8  02 07 12 17 22 27 32 37 42 47 52 58 
9  03 08 15 23 30 38 45 53 
10  01 08 16 23 31 38 46 53 
11  01 08 16 23 31 38 46 53 
12  01 08 16 23 31 38 46 53 
13  01 08 16 23 31 38 46 53 
14  01 08 14 18 23 28 33 38 43 48 53 58 
15  03 08 13 18 23 28 33 38 43 48 53 58 
16  03 08 13 18 23 28 33 38 43 48 53 58 
17  03 08 13 18 23 28 33 38 43 48 55 
18  02 10 16 22 27 33 38 42 48 55 
19  02 10 18 25 33 40 47 55 
20  03 15 30 45 
21  00 15 30 45 
22  00 15 30 45 
23  00 
0 
